<number of tasks>
20

<cycle time>
1000

<order strength>
0,226


<task times>
1 593
2 235
3 644
4 449
5 583
6 374
7 356
8 341
9 287
10 492
11 402
12 655
13 321
14 283
15 738
16 670
17 603
18 453
19 497
20 311

<precedence relations>
1,5
2,4
2,7
3,6
3,8
4,9
5,10
6,11
6,13
7,12
9,15
10,16
11,14
12,17
14,18
15,19
16,19
17,20

<end>
